Copyright (C) 2013-2015, Filipe Brandao
Build (method = -2)
  #dp: 19413
  Step-3' Graph: 210 vertices and 7021 arcs (0.03s)
  Step-4' Graph: 185 vertices and 6971 arcs (0.03s)
  #V4/#V3 = 0.88
  #A4/#A3 = 0.99
Ready! (0.03s)
Optimize a model with 379 rows, 6972 columns and 20552 nonzeros
Presolve removed 99 rows and 124 columns
Presolve time: 0.04s
Presolved: 280 rows, 6848 columns, 19573 nonzeros
Variable types: 0 continuous, 6848 integer (2966 binary)
Found heuristic solution: objective 332.0000000
Optimize a model with 280 rows, 6848 columns and 19573 nonzeros
Presolved: 280 rows, 6848 columns, 19573 nonzeros

Root barrier log...

Ordering time: 0.00s

Barrier statistics:
 AA' NZ     : 1.013e+04
 Factor NZ  : 2.063e+04 (roughly 3 MBytes of memory)
 Factor Ops : 2.197e+06 (less than 1 second per iteration)
 Threads    : 1

                  Objective                Residual
Iter       Primal          Dual         Primal    Dual     Compl     Time
   0   1.30221873e+04 -7.05152204e+04  1.70e+05 1.85e-01  6.73e+01     0s
   1   3.30703787e+03 -1.65642216e+04  2.15e+04 2.22e-15  9.06e+00     0s
   2   8.63815425e+02 -5.93395230e+03  2.18e+03 1.55e-15  1.20e+00     0s
   3   4.36979393e+02 -1.11142760e+03  1.82e+02 1.22e-15  1.56e-01     0s
   4   3.16795278e+02 -2.69847383e+02  4.23e+01 1.33e-15  5.06e-02     0s
   5   2.57159330e+02  5.79593008e+01  1.57e+01 1.21e-15  1.67e-02     0s
   6   2.44575640e+02  1.02684174e+02  9.65e+00 1.37e-15  1.15e-02     0s
   7   2.36051060e+02  1.31133738e+02  7.05e+00 1.57e-15  8.46e-03     0s
   8   2.14140129e+02  1.64398185e+02  1.72e+00 1.32e-15  3.81e-03     0s
   9   2.05817033e+02  1.91060699e+02  2.47e-01 1.11e-15  1.10e-03     0s
  10   2.04448609e+02  2.03320855e+02  6.85e-02 1.27e-15  9.10e-05     0s
  11   2.04063942e+02  2.03957192e+02  1.00e-02 1.16e-15  9.11e-06     0s
  12   2.04000082e+02  2.03999746e+02  7.86e-06 1.26e-15  2.55e-08     0s
  13   2.04000000e+02  2.04000000e+02  1.50e-10 1.55e-15  3.49e-14     0s

Barrier solved model in 13 iterations and 0.05 seconds
Optimal objective 2.04000000e+02


Root relaxation: objective 2.040000e+02, 2971 iterations, 0.06 seconds

    Nodes    |    Current Node    |     Objective Bounds      |     Work
 Expl Unexpl |  Obj  Depth IntInf | Incumbent    BestBd   Gap | It/Node Time

*    0     0               0     204.0000000  204.00000  0.00%     -    0s

Explored 0 nodes (2971 simplex iterations) in 0.15 seconds
Thread count was 1 (of 4 available processors)

Optimal solution found (tolerance 0.00e+00)
Best objective 2.040000000000e+02, best bound 2.040000000000e+02, gap 0.0%
Preprocessing time: 0.04 seconds
Gurobi run time: 0.15 seconds
Total run time: 0.19 seconds
Objective: 204
Solution:
2 x [i=1, i=194]
1 x [i=2, i=194]
2 x [i=3]
1 x [i=4, i=191]
2 x [i=5, i=193]
1 x [i=6, i=190]
1 x [i=7, i=188]
2 x [i=8, i=186]
1 x [i=9, i=184]
1 x [i=10, i=186]
1 x [i=11, i=181]
3 x [i=11, i=182]
3 x [i=12]
1 x [i=12, i=187]
3 x [i=13, i=178]
2 x [i=14, i=180]
2 x [i=15, i=187]
1 x [i=16, i=177]
1 x [i=17, i=176]
2 x [i=18, i=173]
1 x [i=19, i=175]
2 x [i=20, i=173]
2 x [i=21, i=176]
1 x [i=22, i=171]
1 x [i=22, i=172]
3 x [i=23, i=169]
1 x [i=23, i=179]
2 x [i=24, i=168]
2 x [i=25, i=170]
1 x [i=26, i=166]
1 x [i=27, i=166]
3 x [i=28, i=164]
2 x [i=29, i=162]
2 x [i=30, i=161]
1 x [i=31, i=163]
2 x [i=32, i=165]
3 x [i=33, i=167]
1 x [i=34, i=160]
1 x [i=35, i=157]
1 x [i=36, i=155]
2 x [i=37, i=154]
3 x [i=37, i=156]
1 x [i=37, i=160]
2 x [i=38, i=158]
1 x [i=39, i=151]
1 x [i=39, i=152]
2 x [i=40, i=153]
1 x [i=40, i=192]
3 x [i=41, i=150]
2 x [i=42, i=148]
2 x [i=43, i=147]
2 x [i=43, i=149]
3 x [i=44, i=146]
1 x [i=45, i=145]
2 x [i=46, i=143]
2 x [i=46, i=144]
1 x [i=47, i=142]
1 x [i=48, i=141]
1 x [i=49, i=142]
1 x [i=50, i=139]
1 x [i=51, i=138]
3 x [i=52, i=139]
1 x [i=53, i=136]
1 x [i=54, i=137]
3 x [i=55, i=140]
2 x [i=56, i=135]
1 x [i=57, i=132]
1 x [i=57, i=137]
3 x [i=58, i=133]
1 x [i=58, i=159]
2 x [i=59]
1 x [i=59, i=134]
1 x [i=59, i=189]
2 x [i=60, i=130]
1 x [i=61, i=142]
3 x [i=62, i=183]
1 x [i=63, i=128]
1 x [i=63, i=129]
1 x [i=63, i=131]
3 x [i=63, i=174]
1 x [i=64, i=127]
1 x [i=65, i=126]
1 x [i=66, i=127]
1 x [i=66, i=185]
1 x [i=67, i=124]
2 x [i=67, i=125]
1 x [i=68, i=123]
1 x [i=68, i=125]
1 x [i=69]
1 x [i=69, i=122]
1 x [i=70, i=121]
1 x [i=70, i=124]
1 x [i=70, i=155]
2 x [i=71, i=120]
1 x [i=72, i=118]
1 x [i=73, i=117]
2 x [i=74, i=115]
1 x [i=74, i=117]
1 x [i=75, i=114]
3 x [i=76, i=113]
1 x [i=76, i=117]
1 x [i=77, i=112]
1 x [i=77, i=116]
2 x [i=78, i=111]
1 x [i=79, i=110]
2 x [i=80, i=111]
1 x [i=80, i=119]
2 x [i=81, i=110]
1 x [i=81, i=148]
2 x [i=82, i=109]
1 x [i=82, i=110]
1 x [i=83, i=107]
1 x [i=83, i=108]
3 x [i=83, i=109]
1 x [i=83, i=112]
1 x [i=84, i=106]
4 x [i=85, i=105]
1 x [i=86, i=104]
1 x [i=87, i=103]
2 x [i=87, i=105]
1 x [i=88, i=104]
3 x [i=89, i=102]
1 x [i=90, i=99]
1 x [i=90, i=100]
1 x [i=90, i=101]
1 x [i=91, i=100]
2 x [i=92, i=98]
2 x [i=93, i=97]
1 x [i=94, i=96]
2 x [i=94, i=98]
1 x [i=95, i=115]
